Hematite                                
1.0
        5.0355000496         0.0000000000         0.0000000000
        0.0000000000         5.4267997742         0.0000000000
        0.0000000000        -3.7719601772        36.8229118039
    O   Fe
   36   24
Direct
     0.403034955         0.346965969         0.019393098
     0.596965015         0.846965969         0.019393098
     0.056068018         0.000000000         0.049999997
     0.943931997         0.500000000         0.049999997
     0.403033972         0.653033972         0.080606796
     0.596966028         0.153034002         0.080606796
     0.903033972         0.846965969         0.119393103
     0.096966006         0.346965939         0.119393103
     0.556068003         0.500000000         0.149999991
     0.443931997         0.000000000         0.149999991
     0.903035045         0.153034508         0.180606887
     0.096964985         0.653034508         0.180606887
     0.400670409         0.353158146         0.220367655
     0.599329591         0.853158116         0.220367655
     0.053736903         0.011451717         0.251629412
     0.946263075         0.511451721         0.251629412
     0.423309147         0.664407194         0.281044483
     0.576690853         0.164407209         0.281044483
     0.107702181         0.352957219         0.321099490
     0.892297804         0.852957189         0.321099490
     0.562769532         0.503534436         0.352006406
     0.437230438         0.003534424         0.352006406
     0.101927161         0.656894088         0.381262034
     0.898072839         0.156894073         0.381262034
     0.597088814         0.855511487         0.420583159
     0.402911156         0.355511516         0.420583159
     0.053015396         0.015257928         0.450908750
     0.946984589         0.515257955         0.450908750
     0.403054416         0.668071568         0.481971085
     0.596945584         0.168071583         0.481971085
     0.100276962         0.358020693         0.518726647
     0.899723053         0.858020723         0.518726647
     0.563506603         0.521790087         0.554244339
     0.436493397         0.021790074         0.554244339
     0.918158770         0.151502550         0.580854774
     0.081841260         0.651502550         0.580854774
     0.750000000         0.208680004         0.029132197
     0.250000000         0.708679974         0.029132197
     0.750000000         0.791321039         0.070867993
     0.250000000         0.291321069         0.070867993
     0.250000000         0.708679497         0.129132107
     0.750000000         0.208679497         0.129132107
     0.250000000         0.291320443         0.170867875
     0.750000000         0.791320443         0.170867875
     0.749608338         0.222993612         0.229133591
     0.250391692         0.722993612         0.229133591
     0.754771173         0.807387233         0.271626770
     0.245228842         0.307387263         0.271626770
     0.246153712         0.730344057         0.329801053
     0.753846288         0.230344072         0.329801053
     0.752441406         0.795060694         0.371843785
     0.247558594         0.295060724         0.371843785
     0.746593058         0.222573921         0.430210620
     0.253406942         0.722573936         0.430210620
     0.252446115         0.298312396         0.471761674
     0.747553885         0.798312366         0.471761674
     0.262267590         0.731739461         0.531472385
     0.737732410         0.231739432         0.531472385
     0.219280764         0.310410857         0.569116592
     0.780719221         0.810410857         0.569116592
